Solver command line: ['C:\\Program Files\\IBM\\ILOG\\CPLEX_Studio2211\\cplex\\bin\\x64_win64\\cplex.exe']


Welcome to IBM(R) ILOG(R) CPLEX(R) Interactive Optimizer 22.1.1.0
  with Simplex, Mixed Integer & Barrier Optimizers
5725-A06 5725-A29 5724-Y48 5724-Y49 5724-Y54 5724-Y55 5655-Y21
Copyright IBM Corp. 1988, 2022.  All Rights Reserved.

Type 'help' for a list of available commands.
Type 'help' followed by a command name for more
information on commands.

CPLEX> Logfile 'cplex.log' closed.
Logfile 'C:\Users\wangy\Documents\GitHub\re_optimization\result_site_specific\tmphvqyd1lu.cplex.log' open.
CPLEX> Problem 'C:\Users\wangy\Documents\GitHub\re_optimization\result_site_specific\tmpr27hhqbi.pyomo.lp' read.
Read time = 0.25 sec. (6.21 ticks)
CPLEX> Problem name         : C:\Users\wangy\Documents\GitHub\re_optimization\result_site_specific\tmpr27hhqbi.pyomo.lp
Objective sense      : Minimize
Variables            :   43845  [Nneg: 23381,  Free: 4400,  Binary: 4,
                                 Other: 16060]
Objective nonzeros   :      11
Linear constraints   :   64280  [Less: 35051,  Greater: 3,  Equal: 29226]
  Nonzeros           :  154927
  RHS nonzeros       :    3789

Variables            : Min LB: 0.000000         Max UB: 1.000000       
Objective nonzeros   : Min   : 1.000000         Max   : 1.000000       
Linear constraints   :
  Nonzeros           : Min   : 0.001375365      Max   : 100000.0       
  RHS nonzeros       : Min   : 0.06800000       Max   : 1000.000       
CPLEX> Version identifier: 22.1.1.0 | 2022-11-27 | 9160aff4d
Tried aggregator 3 times.
MIP Presolve eliminated 41377 rows and 22398 columns.
Aggregator did 7359 substitutions.
Reduced MIP has 15544 rows, 14088 columns, and 44815 nonzeros.
Reduced MIP has 2 binaries, 0 generals, 0 SOSs, and 0 indicators.
Presolve time = 0.17 sec. (134.47 ticks)
Found incumbent of value 198511.797170 after 0.19 sec. (156.39 ticks)
Probing time = 0.01 sec. (0.85 ticks)
Tried aggregator 1 time.
Detecting symmetries...
Reduced MIP has 15544 rows, 14088 columns, and 44815 nonzeros.
Reduced MIP has 2 binaries, 0 generals, 0 SOSs, and 0 indicators.
Presolve time = 0.03 sec. (26.82 ticks)
Probing time = 0.00 sec. (0.79 ticks)
MIP emphasis: balance optimality and feasibility.
MIP search method: dynamic search.
Parallel mode: deterministic, using up to 16 threads.
Root relaxation solution time = 0.70 sec. (419.65 ticks)

        Nodes                                         Cuts/
   Node  Left     Objective  IInf  Best Integer    Best Bound    ItCnt     Gap

*     0+    0                       198511.7972    -7194.3053           103.62%
*     0+    0                         6079.2977    -7194.3053           218.34%
      0     0     5602.2545     1     6079.2977     5602.2545       51    7.85%
*     0+    0                         6079.2445     5602.2545             7.85%
      0     0        cutoff           6079.2445                    164    0.00%
Elapsed time = 1.12 sec. (712.40 ticks, tree = 0.01 MB, solutions = 3)

Root node processing (before b&c):
  Real time             =    1.12 sec. (714.49 ticks)
Parallel b&c, 16 threads:
  Real time             =    0.00 sec. (0.00 ticks)
  Sync time (average)   =    0.00 sec.
  Wait time (average)   =    0.00 sec.
                          ------------
Total (root+branch&cut) =    1.12 sec. (714.49 ticks)

Solution pool: 3 solutions saved.

MIP - Integer optimal solution:  Objective =  6.0792444672e+03
Solution time =    1.12 sec.  Iterations = 164  Nodes = 0
Deterministic time = 714.62 ticks  (635.21 ticks/sec)

CPLEX> Incumbent solution written to file 'C:\Users\wangy\Documents\GitHub\re_optimization\result_site_specific\tmpjt0q1vuj.cplex.sol'.
CPLEX> 
